798.50
0 23 98 14 3 79 7 32 96 29 94 37 69 31 78 46 10 1 97 93 15 83 80 36 60 51 65 35 58 95 9 91 71 50 27 82 8 40 42 26 48 61 24 13 34 76 67 64 17 11 16 85 68 63 43 86 20 5 57 75 77 6 41 70 45 25 18 87 49 2 39 4 66 30 90 38 72 54 74 84 88 59 47 81 56 33 99 28 52 62 53 19 55 12 73 89 21 44 92 22
